(declare-const __cost Int)
(declare-const param1 Int)
(declare-const param0 Int)
(assert (exists
         ((|__cost'?1| Int) (|j'?2| Int) (j?3 Int) (|i'?4| Int) (K?5 Int))
         (and (<= (- param0) 0) (<= (- param1) 0)
                (or (not (<= (- K?5) 0)) (= (+ |i'?4| (- K?5)) 0))
                (or (not (and (<= (- K?5) 0) (<= K?5 0)))
                      (= (+ (- j?3) |j'?2|) 0))
                (or (not (<= (+ (- K?5) 1) 0)) (= (+ |j'?2| (- param1)) 0))
                (or (not (<= (- K?5) 0))
                      (= (+ |__cost'?1| (- (* K?5 param1))) 0))
                (or (and (= K?5 0) (= (+ j?3 (- |j'?2|)) 0) (= (- |i'?4|) 0)
                           (= (- |__cost'?1|) 0))
                      (and (<= (+ (- K?5) 1) 0) (<= (+ (- param0) 1) 0)
                             (<= (- param1) 0) (= (+ |j'?2| (- param1)) 0)
                             (<= (+ (- |__cost'?1|) param1) 0)
                             (<= (+ |i'?4| (- param0)) 0)
                             (<= (+ (- |i'?4|) 1) 0) (<= (- param1) 0)))
                (<= (- K?5) 0) (<= (- |__cost'?1|) 0) (<= (- |i'?4|) 0)
                (<= (- param1) 0) (<= (- param0) 0)
                (<= (+ (- |i'?4|) param0) 0) (= (+ __cost (- |__cost'?1|)) 0))))
(check-sat)
